c preprocessed version of dimacs_mulsol.i.5-pp, 10 vertices, 45 edges
p td 10 45
0 1
2 0
2 3
2 1
2 9
2 4
2 8
2 5
2 7
2 6
3 0
3 1
3 4
3 5
3 6
3 8
3 9
3 7
4 8
4 7
4 6
4 5
4 0
4 1
4 9
5 8
5 7
5 6
5 0
5 1
5 9
6 8
6 7
6 0
6 1
6 9
7 8
7 9
7 0
7 1
8 0
8 1
8 9
9 0
9 1
